40833.3
39129
39129
39129
39129
39129
39129
39129
39129
39129
39129
39129
39061.7
39061.7
39061.7
38091.5
38091.5
38091.5
38076.7
38076.7
38028.1
37866.5
37673.2
37673.2
37673.2
37276.3
37173.5
37173.5
37173.5
37173.5
37173.5
36625.3
36625.3
36625.3
36601.3
36601.3
36601.3
36298.8
36298.8
36298.8
36298.8
36298.8
36298.8
36151.8
36151.8
35891.8
35732.2
35536.9
35536.9
35536.9
35536.9
35536.9
35536.9
35536.9
35536.9
35536.9
35536.9
35487.6
35487.6
35288.5
35288.5
35288.5
35258.4
35130.8
35130.8
34833.6
34833.6
34740
34740
34740
34740
34740
34740
34236.7
34068.9
34068.9
34068.9
34068.9
34068.9
34068.9
34068.9
34068.9
34057.2
33888
33888
33305.7
33305.7
33305.7
33305.7
33305.7
33305.7
33305.7
33305.7
33305.7
33305.7
33305.7
33305.7
33305.7
33305.7
33236.2
